260
282
413
313
350
370
424
444
350
384
431
343
397
335
503
395
284
435
332
394
367
329
397
407
424
421
376
467
305
392
348
341
501
396
374
484
332
414
285
407
382
362
395
394
381
352
356
425
328
410
458
368
353
401
439
374
418
433
357
264
418
326
505
313
443
311
347
366
415
368
405
391
467
375
396
352
373
375
388
397
363
280
397
421
349
407
383
352
403
453
347
286
383
360
325
467
409
380
385
276
